8941384982570742465507,7,1,2,02,12,1,2,015,7,1,2,04,12,1,2,02,2,1,2,09,2,1,2,02,13,1,2,011,11,1,2,03,12,1,2,015,7,1,2,015,8,1,2,09,12,1,2,04,9,1,2,010,9,1,2,06,1,1,2,07,10,1,2,09,8,1,2,03,12,1,2,03,5,1,2,014,6,1,2,014,2,1,2,09,14,1,2,010,8,1,2,013,15,1,2,07,14,1,2,01,1,1,2,01,12,1,2,06,11,1,2,02,9,1,2,011,15,1,2,014,14,1,2,03,12,1,2,09,9,1,2,02,4,1,2,07,5,1,2,06,6,1,2,012,7,1,2,013,7,1,2,08,9,1,2,03,15,1,2,08,12,1,2,07,9,1,2,07,12,1,2,06,12,1,2,03,12,1,2,04,13,1,2,011,4,1,2,011,1,1,2,09,2,1,2,02,6,1,2,0